Version identifier: 20.1.0.0 | 2020-11-10 | 9bedb6d68
Tried aggregator 2 times.
MIP Presolve eliminated 2522 rows and 1377 columns.
MIP Presolve modified 6242 coefficients.
Aggregator did 242 substitutions.
Reduced MIP has 3645 rows, 2796 columns, and 11964 nonzeros.
Reduced MIP has 470 binaries, 2326 generals, 0 SOSs, and 0 indicators.
Presolve time = 0.04 sec. (14.30 ticks)
Probing fixed 80 vars, tightened 673 bounds.
Probing time = 0.01 sec. (1.41 ticks)
Tried aggregator 1 time.
Detecting symmetries...
MIP Presolve eliminated 1560 rows and 80 columns.
MIP Presolve modified 157 coefficients.
Reduced MIP has 2085 rows, 2716 columns, and 6804 nonzeros.
Reduced MIP has 650 binaries, 2066 generals, 0 SOSs, and 0 indicators.
Presolve time = 0.02 sec. (7.91 ticks)
Probing time = 0.00 sec. (0.50 ticks)
Clique table members: 5.
MIP emphasis: balance optimality and feasibility.
MIP search method: dynamic search.
Parallel mode: deterministic, using up to 24 threads.
Root relaxation solution time = 0.04 sec. (7.51 ticks)

        Nodes                                         Cuts/
   Node  Left     Objective  IInf  Best Integer    Best Bound    ItCnt     Gap

*     0+    0                           51.0000        0.0000           100.00%
      0     0        0.0000    84       51.0000        0.0000      670  100.00%
*     0+    0                           17.0000        0.0000           100.00%
      0     0        0.0000    64       17.0000     Cuts: 174      806   70.59%
      0     0        0.0000    65       17.0000     Cuts: 133     1442   70.59%
      0     0        0.0000    31       17.0000      Cuts: 78     1563   70.59%
      0     0        0.1429   123       17.0000      Cuts: 28     1607   70.59%
*     0+    0                            9.0000        5.0000            44.44%
      0     0        cutoff              9.0000        9.0000     1607    0.00%
Elapsed time = 0.87 sec. (239.26 ticks, tree = 0.01 MB, solutions = 3)

Implied bound cuts applied:  78
Flow cuts applied:  3
Mixed integer rounding cuts applied:  11
Zero-half cuts applied:  44
Lift and project cuts applied:  14
Gomory fractional cuts applied:  27

Root node processing (before b&c):
  Real time             =    0.87 sec. (239.49 ticks)
Parallel b&c, 24 threads:
  Real time             =    0.00 sec. (0.00 ticks)
  Sync time (average)   =    0.00 sec.
  Wait time (average)   =    0.00 sec.
                          ------------
Total (root+branch&cut) =    0.87 sec. (239.49 ticks)

Solution status = Optimal
Solution LB = 9
Solution UB = 9
Runtime = 0.875797 seconds
	Command being timed: "/home/min/git_repos/CS598MEBProject/CNT-ILP/build/cnt -s 2 ./output/k8_n40/simC_c1_k8_n40_u2_s1_del04.input-right.cnp"
	User time (seconds): 10.63
	System time (seconds): 0.17
	Percent of CPU this job got: 1179%
	Elapsed (wall clock) time (h:mm:ss or m:ss): 0:00.91
	Average shared text size (kbytes): 0
	Average unshared data size (kbytes): 0
	Average stack size (kbytes): 0
	Average total size (kbytes): 0
	Maximum resident set size (kbytes): 165856
	Average resident set size (kbytes): 0
	Major (requiring I/O) page faults: 0
	Minor (reclaiming a frame) page faults: 40670
	Voluntary context switches: 7180
	Involuntary context switches: 1451
	Swaps: 0
	File system inputs: 0
	File system outputs: 16
	Socket messages sent: 0
	Socket messages received: 0
	Signals delivered: 0
	Page size (bytes): 4096
	Exit status: 0
